100
32
22
2
15
16
15
18
1
3
28
9
6
19
27
16
32
32
3
9
6
2
31
25
14
16
14
20
16
19
30
12
24
12
2
20
10
28
17
32
6
19
21
4
11
11
24
6
5
17
20
30
28
5
3
24
19
22
13
15
7
29
17
25
24
6
21
3
5
18
18
17
11
3
21
18
22
8
25
5
19
26
18
10
1
17
21
5
10
30
15
29
21
11
7
27
25
14
23
18
19
1